\ Model Cl_45_Ins_4.lp
\ LP format - for model browsing. Use MPS format to capture full model detail.
Maximize
 
Subject To
 obj1: y[0] = 0
 obj2: y[1] = 0
 obj1_Exp: - y[0] + 98 x[0] + 97 x[1] + 94 x[2] + 94 x[3] + 93 x[4]
   + 85 x[5] + 83 x[6] + 80 x[7] + 79 x[8] + 78 x[9] + 77 x[10] + 75 x[11]
   + 71 x[12] + 70 x[13] + 67 x[14] + 63 x[15] + 62 x[16] + 60 x[17]
   + 59 x[18] + 57 x[19] + 46 x[20] + 45 x[21] + 44 x[22] + 41 x[23]
   + 40 x[24] + 37 x[25] + 36 x[26] + 32 x[27] + 31 x[28] + 30 x[29]
   + 25 x[30] + 21 x[31] + 21 x[32] + 19 x[33] + 14 x[34] + 13 x[35]
   + 12 x[36] + 12 x[37] + 9 x[38] + 9 x[39] + 8 x[40] + 7 x[41] + 6 x[42]
   + 5 x[43] + 3 x[44] = 0
 obj2_Exp: - y[1] + 39 x[0] + 6 x[1] + 24 x[2] + 13 x[3] + 31 x[4]
   + 52 x[5] + 45 x[6] + 50 x[7] + 61 x[8] + 54 x[9] + 50 x[10] + 67 x[11]
   + 31 x[12] + 78 x[13] + 84 x[14] + 62 x[15] + 84 x[16] + 66 x[17]
   + 45 x[18] + 38 x[19] + 13 x[20] + 10 x[21] + 32 x[22] + 79 x[23]
   + 83 x[24] + 95 x[25] + 40 x[26] + 17 x[27] + 52 x[28] + 55 x[29]
   + 34 x[30] + 10 x[31] + 89 x[32] + 62 x[33] + 15 x[34] + 37 x[35]
   + 7 x[36] + 93 x[37] + 92 x[38] + 11 x[39] + 92 x[40] + 70 x[41]
   + 15 x[42] + 52 x[43] + 27 x[44] = 0
 Budget: 108 x[0] + 107 x[1] + 104 x[2] + 104 x[3] + 103 x[4] + 95 x[5]
   + 93 x[6] + 90 x[7] + 89 x[8] + 88 x[9] + 87 x[10] + 85 x[11] + 81 x[12]
   + 80 x[13] + 77 x[14] + 73 x[15] + 72 x[16] + 70 x[17] + 69 x[18]
   + 67 x[19] + 56 x[20] + 55 x[21] + 54 x[22] + 51 x[23] + 50 x[24]
   + 47 x[25] + 46 x[26] + 42 x[27] + 41 x[28] + 40 x[29] + 35 x[30]
   + 31 x[31] + 31 x[32] + 29 x[33] + 24 x[34] + 23 x[35] + 22 x[36]
   + 22 x[37] + 19 x[38] + 19 x[39] + 18 x[40] + 17 x[41] + 16 x[42]
   + 15 x[43] + 13 x[44] <= 1156
Bounds
Binaries
 x[0] x[1] x[2] x[3] x[4] x[5] x[6] x[7] x[8] x[9] x[10] x[11] x[12] x[13]
 x[14] x[15] x[16] x[17] x[18] x[19] x[20] x[21] x[22] x[23] x[24] x[25]
 x[26] x[27] x[28] x[29] x[30] x[31] x[32] x[33] x[34] x[35] x[36] x[37]
 x[38] x[39] x[40] x[41] x[42] x[43] x[44]
Generals
 y[0] y[1]
End
